certificates/rado_a10_c136_N27.cnf
c Rad2 upper bound instance: x1 + 10*x2 - x3 = 136, interval [1,27]
p cnf 27 144
1 5 14 0
-1 -5 -14 0
1 15 0
-1 -15 0
1 16 25 0
-1 -16 -25 0
2 6 14 0
-2 -6 -14 0
2 15 16 0
-2 -15 -16 0
2 16 26 0
-2 -16 -26 0
3 7 14 0
-3 -7 -14 0
3 15 17 0
-3 -15 -17 0
3 16 27 0
-3 -16 -27 0
4 8 14 0
-4 -8 -14 0
4 15 18 0
-4 -15 -18 0
5 9 14 0
-5 -9 -14 0
5 15 19 0
-5 -15 -19 0
6 10 14 0
-6 -10 -14 0
6 15 20 0
-6 -15 -20 0
1 7 13 0
-1 -7 -13 0
7 11 14 0
-7 -11 -14 0
7 15 21 0
-7 -15 -21 0
2 8 13 0
-2 -8 -13 0
8 12 14 0
-8 -12 -14 0
8 15 22 0
-8 -15 -22 0
3 9 13 0
-3 -9 -13 0
9 13 14 0
-9 -13 -14 0
9 15 23 0
-9 -15 -23 0
4 10 13 0
-4 -10 -13 0
10 14 0
-10 -14 0
10 15 24 0
-10 -15 -24 0
5 11 13 0
-5 -11 -13 0
11 14 15 0
-11 -14 -15 0
11 15 25 0
-11 -15 -25 0
6 12 13 0
-6 -12 -13 0
12 14 16 0
-12 -14 -16 0
12 15 26 0
-12 -15 -26 0
7 13 0
-7 -13 0
13 14 17 0
-13 -14 -17 0
13 15 27 0
-13 -15 -27 0
8 13 14 0
-8 -13 -14 0
14 18 0
-14 -18 0
9 13 15 0
-9 -13 -15 0
14 15 19 0
-14 -15 -19 0
10 13 16 0
-10 -13 -16 0
14 16 20 0
-14 -16 -20 0
1 12 17 0
-1 -12 -17 0
11 13 17 0
-11 -13 -17 0
14 17 21 0
-14 -17 -21 0
2 12 18 0
-2 -12 -18 0
12 13 18 0
-12 -13 -18 0
14 18 22 0
-14 -18 -22 0
3 12 19 0
-3 -12 -19 0
13 19 0
-13 -19 0
14 19 23 0
-14 -19 -23 0
4 12 20 0
-4 -12 -20 0
13 14 20 0
-13 -14 -20 0
14 20 24 0
-14 -20 -24 0
5 12 21 0
-5 -12 -21 0
13 15 21 0
-13 -15 -21 0
14 21 25 0
-14 -21 -25 0
6 12 22 0
-6 -12 -22 0
13 16 22 0
-13 -16 -22 0
14 22 26 0
-14 -22 -26 0
7 12 23 0
-7 -12 -23 0
13 17 23 0
-13 -17 -23 0
14 23 27 0
-14 -23 -27 0
8 12 24 0
-8 -12 -24 0
13 18 24 0
-13 -18 -24 0
9 12 25 0
-9 -12 -25 0
13 19 25 0
-13 -19 -25 0
10 12 26 0
-10 -12 -26 0
13 20 26 0
-13 -20 -26 0
1 11 27 0
-1 -11 -27 0
11 12 27 0
-11 -12 -27 0
13 21 27 0
-13 -21 -27 0
