certificates/rado_a10_c136_N27.drat
14 -24 -27 0
15 21 23 -14 0
-14 -25 -27 0
-25 -26 -27 0
-15 25 -27 0
25 -27 0
d -15 25 -27 0
15 -27 0
-25 -27 0
d -14 -25 -27 0
-27 0
-11 -15 0
d -11 -14 -15 0
-15 0
1 0
13 0
-7 0
-19 0
21 0
5 0
14 0
-12 0
0
